1292352
0,4,34,97,100,51,28,15,106,93,45,80,1,58,83,50,31,94,42,84,60,5,29,102,55,91,73,47,20,79,16,52,99,101,53,57,103,88,90,10,48,96,46,70,98,104,95,92,12,54,32,77,107,105,59,41,18,61,86,72,75,49,17,6,87,64,11,35,27,39,67,7,38,13,69,68,26,85,74,56,71,30,40,37,25,36,8,76,65,9,108,89,23,63,21,14,22,66,3,78,43,19,62,2,82,24,33,44,81,0